17	4	3
15	16	16	15	43	23	43	
0	0	0	0	0	4	2	2	7	3	3	3	2	3	4
9	1	6	2	3	10	9	6	3	6	4	2	7	17
4	5	2	10	6	7	2	8	2	8	2	2	6	12
9	2	3	3	9	7	2	4	9	7	4	3	5	9	17
8	6	4	7	1	3	7	6	6	4	4	2	10	17
100	2	6	8	9	6	8	5	7	5	8	3	13	14	17
50	7	7	5	6	10	4	7	5	6	2	1	8
100	9	6	9	10	8	3	3	5	4	1	3	11	15	17
50	8	5	2	6	7	1	3	10	10	10	3	14	15	17
100	1	4	1	10	3	2	6	9	8	9	2	16	17
175	9	9	8	9	2	3	6	7	9	10	2	16	17
125	5	5	3	5	4	8	3	1	3	9	1	17
10	5	7	3	2	2	10	1	5	5	5	1	17
5	4	7	6	4	6	1	5	8	1	5	1	17
2	4	2	2	10	7	4	6	3	3	3	2	17	17
9	5	6	9	9	1	5	5	7	1	4	1	17
0	0	0	0	0	6	5	1	9	6	3	0
